p cnf 91 377
3 4 19 -50 51 -91 0
1 -42 45 46 60 0
3 4 23 68 -91 0
-4 52 -61 -63 84 0
7 45 46 -48 64 0
-9 -40 43 -44 87 0
10 -19 -28 -33 -34 0
10 20 21 22 88 0
10 -21 -69 -77 88 0
12 13 -31 -73 79 0
12 13 -31 -73 -79 0
13 -14 57 -73 79 0
-16 -19 -49 -50 -51 0
22 69 70 -72 88 0
-19 -23 -51 -81 85 0
1 2 24 59 0
3 4 25 32 0
4 -49 51 -91 0
4 78 82 84 0
7 8 -47 64 0
7 9 -48 55 0
7 45 55 64 0
-7 -8 -42 83 0
10 -27 34 -57 0
-10 -26 27 -34 0
11 -27 -28 -31 0
-11 -14 -15 -58 0
13 -16 49 67 0
13 -16 67 91 0
-13 -85 90 -91 0
-14 57 -73 78 0
-15 -30 -31 57 0
-16 49 67 -68 0
17 23 39 48 0
-17 22 -44 71 0
18 42 60 69 0
-18 -23 -47 -48 0
19 -30 -33 34 0
20 -38 41 -54 0
22 -53 -69 -72 0
23 -50 -51 -91 0
-23 51 81 85 0
24 -32 -59 61 0
25 -33 74 80 0
25 -74 76 -80 0
40 -43 46 -87 0
-50 66 86 90 0
52 -61 -78 84 0
-53 70 72 -88 0
-68 85 -86 91 0
1 42 45 -87 0
3 19 40 -51 0
-3 -16 -51 68 0
8 -46 -47 64 0
-8 10 -70 88 0
-8 -42 46 83 0
-11 -58 76 80 0
12 26 -27 34 0
12 -31 58 78 0
-13 -49 90 -91 0
-15 57 76 -80 0
-16 -50 -68 -89 0
-16 -51 68 -89 0
-19 -23 81 -85 0
-19 -46 -47 -48 0
-19 85 -86 91 0
20 41 53 -70 0
-20 -21 69 70 0
22 -41 -55 70 0
-23 -68 85 91 0
24 35 -59 61 0
-32 -35 -59 -61 0
-46 -48 55 64 0
1 2 -74 0
1 -7 87 0
1 -32 -62 0
-1 -5 -63 0
-1 8 50 0
-1 27 34 0
-1 -59 62 0
-2 -6 61 0
3 -24 -32 0
3 -32 59 0
3 -51 -91 0
3 56 -62 0
-3 16 50 0
-3 -23 -28 0
-3 50 -66 0
4 23 -82 0
-4 -19 -79 0
-4 61 82 0
-4 -61 78 0
-5 -6 36 0
-5 23 -65 0
-5 52 82 0
-5 -65 74 0
-5 -74 82 0
6 35 -36 0
6 35 61 0
-6 -24 -35 0
-6 37 62 0
7 8 9 0
7 9 -43 0
7 9 55 0
7 45 55 0
7 46 -60 0
8 9 -45 0
-8 -9 -45 0
-8 42 -83 0
-8 46 -64 0
-8 47 -64 0
-8 -83 -88 0
9 -45 -48 0
10 11 -30 0
10 -56 -88 0
11 26 -73 0
11 -73 80 0
12 58 -78 0
-12 -29 73 0
13 -16 49 0
13 49 67 0
13 -86 -90 0
13 89 -90 0
-14 58 -79 0
15 29 30 0
-15 29 58 0
16 49 -68 0
17 18 39 0
17 19 69 0
17 -22 -71 0
17 44 77 0
17 -44 -77 0
-17 -19 54 0
-17 44 -72 0
19 39 54 0
19 74 75 0
19 -74 -80 0
-19 25 65 0
-19 -26 -35 0
-19 36 -63 0
-19 -38 -69 0
-19 -43 87 0
-19 -54 81 0
20 53 -70 0
-20 70 77 0
-22 41 53 0
23 27 56 0
23 38 47 0
23 39 54 0
23 -74 -75 0
23 -75 -76 0
-23 -24 -26 0
-23 25 -27 0
-23 30 36 0
-23 -34 -56 0
-23 -40 -43 0
-23 -44 -71 0
-23 56 -61 0
-24 -25 -33 0
25 27 33 0
25 -33 59 0
25 65 -74 0
-25 -27 -34 0
-26 28 31 0
-26 -31 57 0
29 57 -73 0
-29 36 -37 0
30 33 80 0
30 -63 78 0
-31 57 -76 0
-35 36 82 0
-35 37 82 0
-35 -56 -61 0
-36 37 63 0
38 64 -72 0
38 -70 72 0
-38 -72 88 0
39 40 48 0
-39 -41 -48 0
-42 -60 -83 0
-46 55 64 0
50 -66 89 0
51 67 68 0
51 68 -81 0
52 62 82 0
-58 -76 -80 0
65 74 -82 0
65 -74 -82 0
66 67 -90 0
-66 67 -90 0
-66 -67 86 0
-66 -86 90 0
-66 -86 -90 0
74 -75 76 0
1 2 0
1 -7 0
1 -28 0
1 -32 0
1 -43 0
1 88 0
-1 8 0
-1 -10 0
-1 -56 0
-1 58 0
-1 83 0
2 3 0
2 5 0
2 6 0
2 24 0
2 -35 0
-2 3 0
-2 35 0
-2 74 0
-2 78 0
3 16 0
3 51 0
3 59 0
3 60 0
3 -62 0
3 -67 0
3 -90 0
-3 -16 0
-3 40 0
-3 -47 0
-3 -51 0
-3 -66 0
4 -6 0
4 16 0
4 -52 0
4 61 0
4 63 0
4 -63 0
4 67 0
4 -67 0
4 -73 0
4 74 0
4 -81 0
4 89 0
-4 -51 0
-4 84 0
-4 -84 0
5 -36 0
5 -52 0
5 -82 0
5 -84 0
-5 35 0
-5 59 0
-5 63 0
-5 84 0
6 61 0
6 -62 0
6 -82 0
-6 29 0
-6 52 0
-6 59 0
-6 -65 0
7 8 0
7 9 0
7 -47 0
7 55 0
-7 40 0
-7 -45 0
-7 -46 0
-7 83 0
8 9 0
8 -45 0
8 -46 0
8 -57 0
8 60 0
8 63 0
8 -88 0
-8 -48 0
-8 -53 0
-8 -87 0
9 40 0
9 55 0
-9 -46 0
10 11 0
10 22 0
10 39 0
10 57 0
10 -77 0
10 83 0
-10 -11 0
-10 -12 0
-10 -36 0
-10 -38 0
-10 59 0
-10 -67 0
-10 -83 0
11 14 0
11 15 0
11 27 0
11 -27 0
11 -31 0
11 -33 0
11 -80 0
-11 13 0
12 37 0
12 -61 0
12 -73 0
12 79 0
-12 -13 0
-12 31 0
-12 -57 0
-12 -58 0
-12 78 0
-12 -78 0
-12 -79 0
13 -51 0
13 57 0
13 -86 0
13 89 0
13 -90 0
13 91 0
-13 -67 0
-13 68 0
-13 -76 0
14 -19 0
14 31 0
14 -57 0
14 73 0
14 -78 0
14 -79 0
-14 73 0
-14 -78 0
15 -29 0
15 31 0
15 57 0
15 -57 0
15 -58 0
16 17 0
-16 91 0
17 48 0
-17 -48 0
-17 -53 0
-17 77 0
18 21 0
18 41 0
18 47 0
18 54 0
-18 -55 0
-18 81 0
19 21 0
19 26 0
19 -36 0
19 39 0
19 41 0
19 42 0
19 47 0
19 59 0
19 -62 0
19 64 0
19 -65 0
19 68 0
19 -68 0
19 -76 0
-19 -21 0
-19 -44 0
-19 -58 0
-19 -60 0
-19 67 0
-19 79 0
-19 80 0
-19 83 0
-19 -84 0
-19 86 0
-19 89 0
20 -69 0
20 -72 0
20 -77 0
-20 21 0
-20 72 0
21 23 0
21 -42 0
21 -77 0
-21 42 0
